9
0 71 30 178 174 98 113 187 91 
162 0 156 168 56 175 32 53 151 
151 142 0 167 31 108 192 8 138 
58 88 154 0 146 110 10 159 22 
189 23 147 107 0 14 169 101 192 
163 56 11 160 25 0 149 84 196 
42 3 151 92 37 175 0 197 22 
149 200 69 85 82 135 54 0 19 
139 101 189 128 68 129 94 49 0 
